(set-info :source |printed by MathSAT|)
(declare-fun |!{$(in_main#0)<N>}| () Int)
(declare-fun |!{$(in_main#0)<N>}.next| () Int)
(declare-fun |!{$(in_main#0)<i>}| () Int)
(declare-fun |!{$(in_main#0)<i>}.next| () Int)
(declare-fun |!{$(in_main#0)<j>}| () Int)
(declare-fun |!{$(in_main#0)<j>}.next| () Int)
(declare-fun |!{$(in_main#0)<k>}| () Int)
(declare-fun |!{$(in_main#0)<k>}.next| () Int)
(declare-fun |!{$(in_main#0)<a.1>}| () (Array Int Int))
(declare-fun |!{$(in_main#0)<a.1>}.next| () (Array Int Int))
(declare-fun |!{$(in_main#0)<$(in___VERIFIER_nondet_int#0)<h#<__VERIFIER_nondet_int.return>>>}| () Int)
(declare-fun |!{$(in_main#0)<$(in___VERIFIER_nondet_int#2)<h#<__VERIFIER_nondet_int.return>>>}| () Int)
(declare-fun !pc () Int)
(declare-fun !pc.next () Int)
(declare-fun |%{$(in_main#0)<k>}#1| () Int)
(declare-fun |%{$(in_main#0)<a.1>}#1| () (Array Int Int))
(define-fun .def_33 () Int (! !pc :next !pc.next))
(define-fun .def_36 () Bool (! (= .def_33 2) :init true))
(define-fun .def_148 () Bool (= .def_33 42))
(define-fun .def_109 () Bool (= !pc.next 74))
(define-fun .def_151 () Bool (and .def_109 .def_148))
(define-fun .def_144 () Bool (= |!{$(in_main#0)<k>}.next| 1))
(define-fun .def_10 () Int (! |!{$(in_main#0)<i>}| :next |!{$(in_main#0)<i>}.next|))
(define-fun .def_79 () Bool (= .def_10 |!{$(in_main#0)<i>}.next|))
(define-fun .def_8 () Int (! |!{$(in_main#0)<N>}| :next |!{$(in_main#0)<N>}.next|))
(define-fun .def_77 () Bool (= .def_8 |!{$(in_main#0)<N>}.next|))
(define-fun .def_88 () Bool (and .def_77 .def_79))
(define-fun .def_12 () Int (! |!{$(in_main#0)<j>}| :next |!{$(in_main#0)<j>}.next|))
(define-fun .def_81 () Bool (= .def_12 |!{$(in_main#0)<j>}.next|))
(define-fun .def_89 () Bool (and .def_81 .def_88))
(define-fun .def_145 () Bool (and .def_89 .def_144))
(define-fun .def_16 () (Array Int Int) (! |!{$(in_main#0)<a.1>}| :next |!{$(in_main#0)<a.1>}.next|))
(define-fun .def_85 () Bool (= .def_16 |!{$(in_main#0)<a.1>}.next|))
(define-fun .def_146 () Bool (and .def_85 .def_145))
(define-fun .def_122 () Bool (= |!{$(in_main#0)<$(in___VERIFIER_nondet_int#2)<h#<__VERIFIER_nondet_int.return>>>}| 0))
(define-fun .def_123 () Bool (not .def_122))
(define-fun .def_120 () Bool (<= .def_8 .def_10))
(define-fun .def_121 () Bool (not .def_120))
(define-fun .def_128 () Bool (and .def_121 .def_123))
(define-fun .def_129 () Bool (or .def_120 .def_128))
(define-fun .def_147 () Bool (and .def_129 .def_146))
(define-fun .def_152 () Bool (and .def_147 .def_151))
(define-fun .def_64 () Bool (= !pc.next 42))
(define-fun .def_149 () Bool (and .def_64 .def_148))
(define-fun .def_124 () (Array Int Int) (store .def_16 .def_10 .def_12))
(define-fun .def_140 () Bool (= |!{$(in_main#0)<a.1>}.next| .def_124))
(define-fun .def_134 () Int (* (- 1) |!{$(in_main#0)<j>}.next|))
(define-fun .def_135 () Int (+ .def_12 .def_134))
(define-fun .def_136 () Int (+ .def_10 .def_135))
(define-fun .def_137 () Bool (= .def_136 0))
(define-fun .def_130 () Int (* (- 1) |!{$(in_main#0)<i>}.next|))
(define-fun .def_131 () Int (+ .def_10 .def_130))
(define-fun .def_132 () Bool (= .def_131 (- 1)))
(define-fun .def_133 () Bool (and .def_77 .def_132))
(define-fun .def_138 () Bool (and .def_133 .def_137))
(define-fun .def_14 () Int (! |!{$(in_main#0)<k>}| :next |!{$(in_main#0)<k>}.next|))
(define-fun .def_83 () Bool (= .def_14 |!{$(in_main#0)<k>}.next|))
(define-fun .def_139 () Bool (and .def_83 .def_138))
(define-fun .def_141 () Bool (and .def_139 .def_140))
(define-fun .def_142 () Bool (and .def_122 .def_141))
(define-fun .def_143 () Bool (and .def_121 .def_142))
(define-fun .def_150 () Bool (and .def_143 .def_149))
(define-fun .def_153 () Bool (or .def_150 .def_152))
(define-fun .def_113 () Bool (= !pc.next 0))
(define-fun .def_104 () Bool (= .def_33 74))
(define-fun .def_114 () Bool (and .def_104 .def_113))
(define-fun .def_67 () Bool (<= .def_10 .def_14))
(define-fun .def_98 () Bool (and .def_67 .def_77))
(define-fun .def_99 () Bool (and .def_79 .def_98))
(define-fun .def_100 () Bool (and .def_81 .def_99))
(define-fun .def_101 () Bool (and .def_83 .def_100))
(define-fun .def_102 () Bool (and .def_85 .def_101))
(define-fun .def_115 () Bool (and .def_102 .def_114))
(define-fun .def_110 () Bool (and .def_104 .def_109))
(define-fun .def_91 () Int (* (- 1) |!{$(in_main#0)<k>}.next|))
(define-fun .def_92 () Int (+ .def_14 .def_91))
(define-fun .def_93 () Bool (= .def_92 (- 1)))
(define-fun .def_94 () Bool (and .def_89 .def_93))
(define-fun .def_95 () Bool (and .def_85 .def_94))
(define-fun .def_69 () Int (select .def_16 .def_14))
(define-fun .def_70 () Bool (<= 0 .def_69))
(define-fun .def_71 () Int (ite .def_70 1 0))
(define-fun .def_72 () Bool (= .def_71 0))
(define-fun .def_73 () Bool (not .def_72))
(define-fun .def_96 () Bool (and .def_73 .def_95))
(define-fun .def_68 () Bool (not .def_67))
(define-fun .def_97 () Bool (and .def_68 .def_96))
(define-fun .def_111 () Bool (and .def_97 .def_110))
(define-fun .def_106 () Bool (= !pc.next 94))
(define-fun .def_107 () Bool (and .def_104 .def_106))
(define-fun .def_78 () Bool (and .def_72 .def_77))
(define-fun .def_80 () Bool (and .def_78 .def_79))
(define-fun .def_82 () Bool (and .def_80 .def_81))
(define-fun .def_84 () Bool (and .def_82 .def_83))
(define-fun .def_86 () Bool (and .def_84 .def_85))
(define-fun .def_87 () Bool (and .def_68 .def_86))
(define-fun .def_108 () Bool (and .def_87 .def_107))
(define-fun .def_112 () Bool (or .def_108 .def_111))
(define-fun .def_116 () Bool (or .def_112 .def_115))
(define-fun .def_65 () Bool (and .def_36 .def_64))
(define-fun .def_60 () Bool (= |!{$(in_main#0)<a.1>}.next| |%{$(in_main#0)<a.1>}#1|))
(define-fun .def_58 () Bool (= |!{$(in_main#0)<k>}.next| |%{$(in_main#0)<k>}#1|))
(define-fun .def_56 () Bool (= |!{$(in_main#0)<j>}.next| 0))
(define-fun .def_54 () Bool (= |!{$(in_main#0)<i>}.next| 0))
(define-fun .def_53 () Bool (= |!{$(in_main#0)<N>}.next| |!{$(in_main#0)<$(in___VERIFIER_nondet_int#0)<h#<__VERIFIER_nondet_int.return>>>}|))
(define-fun .def_55 () Bool (and .def_53 .def_54))
(define-fun .def_57 () Bool (and .def_55 .def_56))
(define-fun .def_59 () Bool (and .def_57 .def_58))
(define-fun .def_61 () Bool (and .def_59 .def_60))
(define-fun .def_48 () Bool (<= |!{$(in_main#0)<$(in___VERIFIER_nondet_int#0)<h#<__VERIFIER_nondet_int.return>>>}| 0))
(define-fun .def_49 () Bool (not .def_48))
(define-fun .def_50 () Int (ite .def_49 1 0))
(define-fun .def_51 () Bool (= .def_50 0))
(define-fun .def_52 () Bool (not .def_51))
(define-fun .def_62 () Bool (and .def_52 .def_61))
(define-fun .def_66 () Bool (and .def_62 .def_65))
(define-fun .def_117 () Bool (or .def_66 .def_116))
(define-fun .def_154 () Bool (! (or .def_117 .def_153) :trans true))
(define-fun .def_118 () Bool (= .def_33 94))
(define-fun .def_155 () Bool (! (not .def_118) :invar-property 0 :invar-property-name ||))
(assert true)
